(declare-const a Real)
(declare-const b Real)
(declare-const c Real)
(assert (= (+ a b c) 3))
(assert (> a 0))
(assert (> b 0))
(assert (> c 0))
(assert (not (<= (+ (/ 2 3) (* -1 (pow a -1)) (* -1 (pow b -1)) (* -1 (pow c -1)) (* 2 (pow (+ a c) -1)) (* 2 (pow (+ b c) -1)) (* (/ 8 3) (pow (+ a b) -3))) 0)))
(check-sat)
(get-model)
(exit)